param set_len = 58;
param target_sum = 16321950259;
param values := [1] 857655795 [2] 410175228 [3] 686707682 [4] 455882851 [5] 682313620 [6] 330575608 [7] 117812624 [8] 848931117 [9] 43622180 [10] 879358893 [11] 256621533 [12] 1030523326 [13] 10195162 [14] 392964837 [15] 478758273 [16] 992891581 [17] 964395145 [18] 903830934 [19] 797062371 [20] 241837443 [21] 150319695 [22] 478724623 [23] 197644769 [24] 556930902 [25] 651454483 [26] 909737741 [27] 96802100 [28] 1071949930 [29] 749225769 [30] 1057968254 [31] 707686182 [32] 902623330 [33] 788056458 [34] 36897513 [35] 930487714 [36] 482370557 [37] 644216601 [38] 68335580 [39] 452677399 [40] 481604109 [41] 568943510 [42] 261379784 [43] 3316617 [44] 903620026 [45] 752777072 [46] 220916318 [47] 259988643 [48] 848987258 [49] 463494757 [50] 1007584512 [51] 329128469 [52] 406479128 [53] 458050645 [54] 433878454 [55] 468263922 [56] 312015488 [57] 892168920 [58] 78254008 ;
